NAME          
ROWS
 N  OBJ
 L  c1
 L  c2
COLUMNS
    MARKER    'MARKER'                 'INTORG'
    x[1]      c1        770
    x[1]      c2        360
    x[1]      OBJ       -252
    x[2]      c1        727
    x[2]      c2        922
    x[2]      OBJ       -226
    x[3]      c1        679
    x[3]      c2        350
    x[3]      OBJ       -183
    x[4]      c1        258
    x[4]      c2        593
    x[4]      OBJ       -247
    x[5]      c1        152
    x[5]      c2        169
    x[5]      OBJ       -69
    x[6]      c1        986
    x[6]      c2        839
    x[6]      OBJ       -249
    x[7]      c1        446
    x[7]      c2        361
    x[7]      OBJ       -370
    x[8]      c1        984
    x[8]      c2        143
    x[8]      OBJ       -520
    x[9]      c1        291
    x[9]      c2        17
    x[9]      OBJ       -974
    x[10]     c1        762
    x[10]     c2        995
    x[10]     OBJ       -352
    x[11]     c1        617
    x[11]     c2        543
    x[11]     OBJ       -357
    x[12]     c1        580
    x[12]     c2        705
    x[12]     OBJ       -429
    x[13]     c1        433
    x[13]     c2        813
    x[13]     OBJ       -809
    x[14]     c1        759
    x[14]     c2        377
    x[14]     OBJ       -188
    x[15]     c1        503
    x[15]     c2        745
    x[15]     OBJ       -981
    x[16]     c1        897
    x[16]     c2        973
    x[16]     OBJ       -250
    x[17]     c1        689
    x[17]     c2        354
    x[17]     OBJ       -150
    x[18]     c1        60
    x[18]     c2        9
    x[18]     OBJ       -804
    x[19]     c1        662
    x[19]     c2        691
    x[19]     OBJ       -23
    x[20]     c1        335
    x[20]     c2        446
    x[20]     OBJ       -99
    x[21]     c1        131
    x[21]     c2        940
    x[21]     OBJ       -948
    x[22]     c1        232
    x[22]     c2        716
    x[22]     OBJ       -810
    x[23]     c1        994
    x[23]     c2        104
    x[23]     OBJ       -791
    x[24]     c1        696
    x[24]     c2        817
    x[24]     OBJ       -432
    x[25]     c1        622
    x[25]     c2        572
    x[25]     OBJ       -466
RHS
    rhs       c1        7132
    rhs       c2        6777
RANGES
BOUNDS
 LO bounds    x[1]      0
 PL bounds    x[1]
 LO bounds    x[2]      0
 PL bounds    x[2]
 LO bounds    x[3]      0
 PL bounds    x[3]
 LO bounds    x[4]      0
 PL bounds    x[4]
 LO bounds    x[5]      0
 PL bounds    x[5]
 LO bounds    x[6]      0
 PL bounds    x[6]
 LO bounds    x[7]      0
 PL bounds    x[7]
 LO bounds    x[8]      0
 PL bounds    x[8]
 LO bounds    x[9]      0
 PL bounds    x[9]
 LO bounds    x[10]     0
 PL bounds    x[10]
 LO bounds    x[11]     0
 PL bounds    x[11]
 LO bounds    x[12]     0
 PL bounds    x[12]
 LO bounds    x[13]     0
 PL bounds    x[13]
 LO bounds    x[14]     0
 PL bounds    x[14]
 LO bounds    x[15]     0
 PL bounds    x[15]
 LO bounds    x[16]     0
 PL bounds    x[16]
 LO bounds    x[17]     0
 PL bounds    x[17]
 LO bounds    x[18]     0
 PL bounds    x[18]
 LO bounds    x[19]     0
 PL bounds    x[19]
 LO bounds    x[20]     0
 PL bounds    x[20]
 LO bounds    x[21]     0
 PL bounds    x[21]
 LO bounds    x[22]     0
 PL bounds    x[22]
 LO bounds    x[23]     0
 PL bounds    x[23]
 LO bounds    x[24]     0
 PL bounds    x[24]
 LO bounds    x[25]     0
 PL bounds    x[25]
ENDATA
